nr = 3;
stageF=false;
ns = 12;
nsh = 12;
size = [1,1,1,1,1,1,1,1,1,1,1,1];
ship = [1,2,3,4,5,6,7,8,9,10,11,12];
stack_time = 4;
reclaim_time = 2;
reclaim_speed = 1;
maxtime = 100;
arrival = [ 0, 0, 20, 40, 50, 20, 30, 0, 15, 20, 25, 30 ];
len = 3;
